(set-info :smt-lib-version 2.6)
(set-logic QF_DT)
(set-info :source |
Generated by: Federico Mora
Generated on: 2023-07-20
Generator: z3 Python bindings via UCLID5 Python API
Application: Blocksworld Automated Reasoning Problems.
Target solvers: Algaroba, cvc5, Z3, Princess
Publications: Shah, Mora and Seshia. An Eager Satisfiability Modulo Theories Solver for Algebraic Datatypes. AAAI ’24 |)
(set-info :license "https://creativecommons.org/licenses/by/4.0/")
(set-info :category "industrial")
(set-info :status unsat) 
(declare-datatypes ((Enum_A_B_C_D_E_F_G_H_I_J_K_L_M_N_O_P_Q_R_S_T_U_V_W_X 0)) (((A) (B) (C) (D) (E) (F) (G) (H) (I) (J) (K) (L) (M) (N) (O) (P) (Q) (R) (S) (T) (U) (V) (W) (X))))
(declare-datatypes ((Tower 0)) (((stack (top Enum_A_B_C_D_E_F_G_H_I_J_K_L_M_N_O_P_Q_R_S_T_U_V_W_X) (rest Tower)) (empty))))
(declare-datatypes ((Record_left_center_right 0)) (((Record_left_center_right (left Tower) (center Tower) (right Tower)))))
(declare-datatypes ((Enum_left-to-center_left-to-right_center-to-left_center-to-right_right-to-left_right-to-center 0)) (((left-to-center) (left-to-right) (center-to-left) (center-to-right) (right-to-left) (right-to-center))))
(declare-fun s () Record_left_center_right)
(declare-fun s_tmp () Record_left_center_right)
(declare-fun c () Enum_left-to-center_left-to-right_center-to-left_center-to-right_right-to-left_right-to-center)
(declare-fun c_tmp () Enum_left-to-center_left-to-right_center-to-left_center-to-right_right-to-left_right-to-center)
(declare-fun s_tmp_ () Record_left_center_right)
(declare-fun s_tmp__ () Record_left_center_right)
(declare-fun s_tmp___ () Record_left_center_right)
(declare-fun c!0 () Enum_left-to-center_left-to-right_center-to-left_center-to-right_right-to-left_right-to-center)
(declare-fun c_tmp____ () Enum_left-to-center_left-to-right_center-to-left_center-to-right_right-to-left_right-to-center)
(declare-fun s_ () Record_left_center_right)
(declare-fun c_ () Enum_left-to-center_left-to-right_center-to-left_center-to-right_right-to-left_right-to-center)
(assert
 (= s_tmp s))
(assert
 (= c_tmp c))
(assert
 (let ((?x37 (stack D empty)))
 (let ((?x36 (stack Q ?x37)))
 (let ((?x38 (stack E ?x36)))
 (let ((?x39 (stack K ?x38)))
 (let ((?x40 (stack P ?x39)))
 (let ((?x41 (stack W ?x40)))
 (let ((?x42 (stack M ?x41)))
 (let ((?x43 (stack V ?x42)))
 (let ((?x44 (stack I ?x43)))
 (let ((?x45 (stack X ?x44)))
 (let ((?x46 (stack T ?x45)))
 (let ((?x47 (stack A ?x46)))
 (let ((?x48 (stack R ?x47)))
 (let ((?x49 (stack S ?x48)))
 (let ((?x50 (stack H ?x49)))
 (let ((?x51 (stack C ?x50)))
 (let ((?x52 (stack J ?x51)))
 (let ((?x53 (stack O ?x52)))
 (let ((?x54 (stack N ?x53)))
 (let ((?x55 (stack L ?x54)))
 (let ((?x56 (stack U ?x55)))
 (let ((?x57 (stack G ?x56)))
 (let ((?x128 (left s_tmp_)))
 (= ?x128 ?x57)))))))))))))))))))))))))
(assert
 (let ((?x131 (center s_tmp__)))
 (= ?x131 empty)))
(assert
 (let ((?x58 (stack B empty)))
 (let ((?x59 (stack F ?x58)))
 (let ((?x134 (right s_tmp___)))
 (= ?x134 ?x59)))))
(assert
 (= c_tmp____ c!0))
(assert
 (= s_ s_tmp___))
(assert
 (= c_ c_tmp____))
(assert
 (let ((?x161 (left s_tmp__)))
 (= (left s_tmp___) ?x161)))
(assert
 (let ((?x131 (center s_tmp__)))
 (= (center s_tmp___) ?x131)))
(assert
 (let ((?x165 (center s_tmp_)))
 (= ?x165 (center s_tmp))))
(assert
 (let ((?x168 (right s_tmp_)))
 (= ?x168 (right s_tmp))))
(assert
 (let ((?x128 (left s_tmp_)))
 (let ((?x161 (left s_tmp__)))
 (= ?x161 ?x128))))
(assert
 (let ((?x168 (right s_tmp_)))
 (let ((?x172 (right s_tmp__)))
 (= ?x172 ?x168))))
(assert
 (let ((?x74 (stack Q (stack I (stack E (stack K (stack S (stack P empty))))))))
 (let ((?x80 (stack X (stack R (stack O (stack M (stack G (stack H ?x74))))))))
 (let ((?x110 (center s_)))
 (let ((?x61 (stack U empty)))
 (let ((?x60 (stack J ?x61)))
 (let ((?x62 (stack N ?x60)))
 (let ((?x63 (stack L ?x62)))
 (let ((?x64 (stack A ?x63)))
 (let ((?x65 (stack W ?x64)))
 (let ((?x66 (stack C ?x65)))
 (let ((?x67 (stack T ?x66)))
 (let ((?x68 (stack D ?x67)))
 (let ((?x105 (left s_)))
 (let (($x177 (and (= ?x105 ?x68) (= ?x110 ?x80) (= (right s_) (stack V (stack F (stack B empty)))))))
 (let (($x178 (not $x177)))
 (not $x178)))))))))))))))))
(check-sat)
(exit)
